
Gurobi 8.1.1 (win64, Python) logging started 07/05/22 19:22:58


Gurobi 8.1.1 (win64, Python) logging started 07/05/22 19:22:59


Gurobi 8.1.1 (win64, Python) logging started 07/05/22 19:22:59


Gurobi 8.1.1 (win64, Python) logging started 07/05/22 19:23:00


Gurobi 8.1.1 (win64, Python) logging started 07/05/22 19:23:00


Gurobi 8.1.1 (win64, Python) logging started 07/05/22 19:23:01


Gurobi 8.1.1 (win64, Python) logging started 07/05/22 19:23:01


Gurobi 8.1.1 (win64, Python) logging started 07/05/22 19:23:02


Gurobi 8.1.1 (win64, Python) logging started 07/05/22 19:23:05


Gurobi 8.1.1 (win64, Python) logging started 07/05/22 19:23:05


Gurobi 8.1.1 (win64, Python) logging started 07/05/22 19:23:06


Gurobi 8.1.1 (win64, Python) logging started 07/05/22 19:23:07


Gurobi 8.1.1 (win64, Python) logging started 07/05/22 19:23:07


Gurobi 8.1.1 (win64, Python) logging started 07/05/22 19:23:08


Gurobi 8.1.1 (win64, Python) logging started 07/05/22 19:23:08


Gurobi 8.1.1 (win64, Python) logging started 07/05/22 19:23:08


Gurobi 8.1.1 (win64, Python) logging started 07/05/22 19:23:11


Gurobi 8.1.1 (win64, Python) logging started 07/05/22 19:23:11


Gurobi 8.1.1 (win64, Python) logging started 07/05/22 19:23:12


Gurobi 8.1.1 (win64, Python) logging started 07/05/22 19:23:12


Gurobi 8.1.1 (win64, Python) logging started 07/05/22 19:23:13


Gurobi 8.1.1 (win64, Python) logging started 07/05/22 19:23:14


Gurobi 8.1.1 (win64, Python) logging started 07/05/22 21:19:45


Gurobi 8.1.1 (win64, Python) logging started 07/05/22 21:19:46


Gurobi 8.1.1 (win64, Python) logging started 07/05/22 21:19:47


Gurobi 8.1.1 (win64, Python) logging started 07/05/22 21:19:47


Gurobi 8.1.1 (win64, Python) logging started 07/05/22 21:19:48


Gurobi 8.1.1 (win64, Python) logging started 07/05/22 21:19:48


Gurobi 8.1.1 (win64, Python) logging started 07/05/22 21:19:48


Gurobi 8.1.1 (win64, Python) logging started 07/05/22 21:19:49


Gurobi 8.1.1 (win64, Python) logging started 07/05/22 21:19:52


Gurobi 8.1.1 (win64, Python) logging started 07/05/22 21:19:53


Gurobi 8.1.1 (win64, Python) logging started 07/05/22 21:19:54


Gurobi 8.1.1 (win64, Python) logging started 07/05/22 21:19:55


Gurobi 8.1.1 (win64, Python) logging started 07/05/22 21:19:56


Gurobi 8.1.1 (win64, Python) logging started 07/05/22 21:19:57


Gurobi 8.1.1 (win64, Python) logging started 07/05/22 21:19:57


Gurobi 8.1.1 (win64, Python) logging started 07/05/22 21:19:57


Gurobi 8.1.1 (win64, Python) logging started 07/05/22 21:20:00


Gurobi 8.1.1 (win64, Python) logging started 07/05/22 21:20:01


Gurobi 8.1.1 (win64, Python) logging started 07/05/22 21:20:02


Gurobi 8.1.1 (win64, Python) logging started 07/05/22 21:20:03


Gurobi 8.1.1 (win64, Python) logging started 07/05/22 21:20:04


Gurobi 8.1.1 (win64, Python) logging started 07/05/22 21:20:04


Gurobi 8.1.1 (win64, Python) logging started 07/05/22 21:20:04


Gurobi 8.1.1 (win64, Python) logging started 07/05/22 21:20:05


Gurobi 8.1.1 (win64, Python) logging started 07/05/22 21:20:08


Gurobi 8.1.1 (win64, Python) logging started 07/05/22 21:20:09


Gurobi 8.1.1 (win64, Python) logging started 07/05/22 21:20:09


Gurobi 8.1.1 (win64, Python) logging started 07/05/22 21:20:10


Gurobi 8.1.1 (win64, Python) logging started 07/05/22 21:20:11


Gurobi 8.1.1 (win64, Python) logging started 07/05/22 21:20:12


Gurobi 8.1.1 (win64, Python) logging started 07/05/22 21:20:13


Gurobi 8.1.1 (win64, Python) logging started 07/05/22 21:20:13


Gurobi 8.1.1 (win64, Python) logging started 07/05/22 21:20:15


Gurobi 8.1.1 (win64, Python) logging started 07/05/22 21:20:16


Gurobi 8.1.1 (win64, Python) logging started 07/05/22 21:20:43


Gurobi 8.1.1 (win64, Python) logging started 07/05/22 21:20:44


Gurobi 8.1.1 (win64, Python) logging started 07/05/22 21:20:44


Gurobi 8.1.1 (win64, Python) logging started 07/05/22 21:20:45


Gurobi 8.1.1 (win64, Python) logging started 07/05/22 21:20:46


Gurobi 8.1.1 (win64, Python) logging started 07/05/22 21:20:46


Gurobi 8.1.1 (win64, Python) logging started 07/05/22 21:20:47


Gurobi 8.1.1 (win64, Python) logging started 07/05/22 21:20:48


Gurobi 8.1.1 (win64, Python) logging started 07/05/22 21:20:50


Gurobi 8.1.1 (win64, Python) logging started 07/05/22 21:20:50


Gurobi 8.1.1 (win64, Python) logging started 07/05/22 21:23:10


Gurobi 8.1.1 (win64, Python) logging started 07/05/22 21:23:11


Gurobi 8.1.1 (win64, Python) logging started 07/05/22 21:23:12


Gurobi 8.1.1 (win64, Python) logging started 07/05/22 21:23:12


Gurobi 8.1.1 (win64, Python) logging started 07/05/22 21:23:13


Gurobi 8.1.1 (win64, Python) logging started 07/05/22 21:23:14


Gurobi 8.1.1 (win64, Python) logging started 07/05/22 21:23:15


Gurobi 8.1.1 (win64, Python) logging started 07/05/22 21:23:15


Gurobi 8.1.1 (win64, Python) logging started 07/05/22 21:23:17


Gurobi 8.1.1 (win64, Python) logging started 07/05/22 21:23:17


Gurobi 8.1.1 (win64, Python) logging started 07/05/22 21:24:37


Gurobi 8.1.1 (win64, Python) logging started 07/05/22 21:24:38


Gurobi 8.1.1 (win64, Python) logging started 07/05/22 21:24:39


Gurobi 8.1.1 (win64, Python) logging started 07/05/22 21:25:25


Gurobi 8.1.1 (win64, Python) logging started 07/05/22 21:25:25


Gurobi 8.1.1 (win64, Python) logging started 07/05/22 21:25:26

